;---
; using 8-bit bit-vectors as characters
; check membership of .Net regex
; regexA = [\w-]+@([\w-]+\.)+[\w-]+
;---
(set-info :status sat)
(set-option :print-success true)
(set-logic QF_BVRE)

(declare-const regexA (RegEx String))
(declare-const x String)

;witness1: "\u00E2@8.29\u00CD:"
(define-fun Witness1 () String (seq.++ "\xe2" (seq.++ "@" (seq.++ "8" (seq.++ "." (seq.++ "2" (seq.++ "9" (seq.++ "\xcd" (seq.++ ":" "")))))))))
;witness2: "6@\u00C2.z\u00AA\u00BA"
(define-fun Witness2 () String (seq.++ "6" (seq.++ "@" (seq.++ "\xc2" (seq.++ "." (seq.++ "z" (seq.++ "\xaa" (seq.++ "\xba" ""))))))))

(assert (= regexA (re.++ (re.+ (re.union (re.range "-" "-")(re.union (re.range "0" "9")(re.union (re.range "A" "Z")(re.union (re.range "_" "_")(re.union (re.range "a" "z")(re.union (re.range "\xaa" "\xaa")(re.union (re.range "\xb5" "\xb5")(re.union (re.range "\xba" "\xba")(re.union (re.range "\xc0" "\xd6")(re.union (re.range "\xd8" "\xf6") (re.range "\xf8" "\xff"))))))))))))(re.++ (re.range "@" "@")(re.++ (re.+ (re.++ (re.+ (re.union (re.range "-" "-")(re.union (re.range "0" "9")(re.union (re.range "A" "Z")(re.union (re.range "_" "_")(re.union (re.range "a" "z")(re.union (re.range "\xaa" "\xaa")(re.union (re.range "\xb5" "\xb5")(re.union (re.range "\xba" "\xba")(re.union (re.range "\xc0" "\xd6")(re.union (re.range "\xd8" "\xf6") (re.range "\xf8" "\xff")))))))))))) (re.range "." "."))) (re.+ (re.union (re.range "-" "-")(re.union (re.range "0" "9")(re.union (re.range "A" "Z")(re.union (re.range "_" "_")(re.union (re.range "a" "z")(re.union (re.range "\xaa" "\xaa")(re.union (re.range "\xb5" "\xb5")(re.union (re.range "\xba" "\xba")(re.union (re.range "\xc0" "\xd6")(re.union (re.range "\xd8" "\xf6") (re.range "\xf8" "\xff")))))))))))))))))

;check that the regex contains some x
(assert (str.in_re x regexA))
;check also the concrete witnesses
(assert (str.in_re Witness1 regexA))
(assert (str.in_re Witness2 regexA))
(check-sat)
